Geometry = GenFormat {
5  C
C  H
1 1    0.0000000000E+00    0.0000000000E+00    0.0000000000E+00
2 2    0.6287614522E+00    0.6287614522E+00    0.6287614522E+00
3 2   -0.6287614522E+00   -0.6287614522E+00    0.6287614522E+00
4 2   -0.6287614522E+00    0.6287614522E+00   -0.6287614522E+00
5 2    0.6287614522E+00   -0.6287614522E+00   -0.6287614522E+00
}
Hamiltonian = DFTB {
  AtomSitePotential = Gross {
    Atoms = 2
    Vext [eV] = -0.5
  }
  MaxAngularMomentum = {
    C = "p"
    H = "s"
  }
  Charge = 0.0
  Filling = Fermi {
    Temperature [Kelvin] = 100.0
  }
  SlaterKosterFiles = Type2FileNames {
    Prefix = {
slakos/origin/mio-1-1/
    }
    Separator = "-"
    Suffix = ".skf"
    LowerCaseTypeName = No
  }
  PolynomialRepulsive = {}
  SCC = No
  Hybrid = None {}
  OldSKInterpolation = No
  SpinPolarisation = {}
  ElectricField = {}
  Solver = RelativelyRobust {}
  Dispersion = {}
  Solvation = {}
  ElectronicConstraints = {}
  Differentiation = FiniteDiff {
    Delta = 1.220703125000000E-004
  }
}
Options = {
  WriteAutotestTag = Yes
  WriteDetailedOut = Yes
  WriteDetailedXML = No
  WriteResultsTag = No
  RandomSeed = 0
  WriteHS = No
  WriteRealHS = No
  MinimiseMemoryUsage = No
  ShowFoldedCoords = No
  TimingVerbosity = 1
  WriteCharges = Yes
  WriteChargesAsText = No
  BinaryAccessTypes = {
 "stream"
  }
}
Analysis = {
  CalculateForces = Yes
  ProjectStates = {}
  WriteEigenvectors = No
  WriteBandOut = Yes
  MullikenAnalysis = Yes
  WriteNetCharges = No
  AtomResolvedEnergies = No
}
ParserOptions = {
  ParserVersion = 14
  WriteHSDInput = Yes
  StopAfterParsing = No
  IgnoreUnprocessedNodes = No
}
Parallel = {
  UseOmpThreads = Yes
  Groups = 1
  Blacs = BlockSize {
32
  }
}
Reks = None {}
Driver = {}
ExcitedState = {}
